%BLOCK LATTICE_ABC
9.5 8.6 5.2
90.000 106.239525 90.000
%ENDBLOCK LATTICE_ABC

%BLOCK POSITIONS_FRAC
 O        0.109351   0.075984   0.127226 
 O        0.609478   0.575897   0.127173 
 O        0.890648   0.075983   0.372774 
 O        0.390522   0.575896   0.372827 
 O        0.890649   0.924015   0.872774 
 O        0.390522   0.424103   0.872827 
 O        0.109352   0.924017   0.627226 
 O        0.609478   0.424104   0.627173 
 O        0.361729   0.261048   0.290334 
 O        0.861768   0.761055   0.290239 
 O        0.638272   0.261047   0.209668 
 O        0.138233   0.761054   0.209763 
 O        0.638272   0.738952   0.709666 
 O        0.138232   0.238945   0.709761 
 O        0.361728   0.738952   0.790332 
 O        0.861767   0.238946   0.790237 
 O        0.351185   0.004571   1.007530 
 O        0.851411   0.504614   1.007518 
 O        0.648814   0.004570   0.492470 
 O        0.148589   0.504614   0.492483 
 O        0.648815   0.995429  -0.007530 
 O        0.148589   0.495386  -0.007518 
 O        0.351186   0.995430   0.507529 
 O        0.851411   0.495386   0.507517 
 Na      -0.000003   0.299298   0.250002 
 Na       0.499997   0.799268   0.250001 
 Na       0.000003   0.700702   0.749998 
 Na       0.500003   0.200732   0.749998 
 Al       0.000000   0.904121   0.249999 
 Al       0.500000   0.404072   0.249999 
 Al       0.000000   0.095879   0.750001 
 Al       0.500000   0.595928   0.750000 
 Si       0.289852   0.092915   0.226788 
 Si       0.790013   0.592861   0.226791 
 Si       0.710147   0.092913   0.273213 
 Si       0.209986   0.592860   0.273210 
 Si       0.710148   0.907085   0.773213 
 Si       0.209987   0.407139   0.773210 
 Si       0.289853   0.907087   0.726787 
 Si       0.790014   0.407140   0.726790 
%ENDBLOCK POSITIONS_FRAC

SYMMETRY_GENERATE
SNAP_TO_SYMMETRY

KPOINT_MP_GRID 2 2 3

%BLOCK SPECIES_POT
O O_00PBE.usp 
Al Al_00PBE.usp
Na Na_00PBE.usp
Si Si_00PBE.usp
%ENDBLOCK SPECIES_POT

%BLOCK EXTERNAL_PRESSURE
    4.30    0.0000 0.0000
        4.30    0.0000
              4.30
%ENDBLOCK EXTERNAL_PRESSURE

