%block LATTICE_CART
8.9813392803 0.0 -2.86241655848
0.0 8.5603493 0.0
0.0 0.0 5.21991789872
%endblock LATTICE_CART
FIX_ALL_CELL true

%block POSITIONS_FRAC
  O  0.109277  0.076953  0.129205
  O  0.609279  0.576951  0.129208
  O  0.890723  0.076953  0.370795
  O  0.390721  0.576951  0.370792
  O  0.890723  0.923047  0.870795
  O  0.390721  0.423048  0.870792
  O  0.109277  0.923047  0.629205
  O  0.609279  0.423048  0.629208
  O  0.361047  0.263746  0.295383
  O  0.861046  0.763747  0.295382
  O  0.638953  0.263746  0.204617
  O  0.138954  0.763747  0.204618
  O  0.638953  0.736253  0.704617
  O  0.138954  0.236253  0.704618
  O  0.361047  0.736253  0.795383
  O  0.861046  0.236253  0.795382
  O  0.354029  0.008469  1.005059
  O  0.854032  0.508466  1.005069
  O  0.645971  0.008469  0.494941
  O  0.145968  0.508466  0.494931
  O  0.645971  0.99153  -0.005059
  O  0.145968  0.491534  -0.005069
  O  0.354029  0.99153  0.505059
  O  0.854032  0.491534  0.505069
  Na  0.0  0.30123  0.25
  Na  0.5  0.801234  0.25
  Na  0.0  0.69877  0.75
  Na  0.5  0.198765  0.75
  Al  0.0  0.906276  0.25
  Al  0.5  0.406276  0.25
  Al  0.0  0.093723  0.75
  Al  0.5  0.593723  0.75
  Si  0.290869  0.093824  0.2281
  Si  0.790871  0.593823  0.228106
  Si  0.709131  0.093824  0.2719
  Si  0.209129  0.593823  0.271894
  Si  0.709131  0.906175  0.7719
  Si  0.209129  0.406176  0.771894
  Si  0.290869  0.906175  0.7281
  Si  0.790871  0.406176  0.728106
%endblock POSITIONS_FRAC

SYMMETRY_GENERATE
SNAP_TO_SYMMETRY

KPOINT_MP_GRID 2 2 3

%BLOCK SPECIES_POT
O O_00PBE.usp 
Al Al_00PBE.usp
Na Na_00PBE.usp
Si Si_00PBE.usp
%ENDBLOCK SPECIES_POT

%BLOCK EXTERNAL_PRESSURE
    4.30    0.0000 0.0000
        4.30    0.0000
              4.30
%ENDBLOCK EXTERNAL_PRESSURE

